p ocr 145 139 450
1 146
1 147
1 148
1 157
1 158
1 159
1 160
1 161
1 162
1 166
1 182
1 183
1 184
1 195
2 146
2 147
2 149
2 150
2 152
2 153
2 154
2 155
2 163
2 165
2 166
2 179
2 180
2 181
2 185
2 192
2 193
2 194
3 146
3 148
3 149
3 151
3 157
3 160
3 162
3 164
3 168
3 171
3 177
3 181
3 187
3 191
4 147
4 148
4 161
4 166
4 172
4 175
4 182
4 190
4 195
5 146
5 152
5 153
5 154
5 163
5 165
5 170
5 189
5 191
5 192
6 146
6 150
6 167
6 186
6 189
7 146
7 150
7 167
7 180
8 146
9 189
10 147
10 169
10 174
10 178
10 188
12 147
12 158
12 169
12 178
13 157
13 160
13 184
13 187
14 149
15 152
15 165
16 146
16 149
16 151
16 156
17 146
17 191
18 146
18 151
19 148
19 168
19 171
19 177
19 190
20 152
20 155
20 193
21 185
22 152
22 154
22 192
23 148
23 168
24 149
25 147
25 188
27 147
27 172
27 195
29 146
29 164
31 150
32 148
33 147
33 159
33 173
33 183
34 148
35 185
38 160
40 147
40 174
41 155
41 179
42 184
43 195
43 196
43 197
43 199
43 201
43 202
43 204
43 206
44 195
44 196
44 201
44 206
44 209
45 195
45 197
46 196
46 198
46 199
46 203
46 204
46 206
46 207
46 210
47 195
48 196
48 203
48 209
49 196
50 195
50 197
50 200
51 196
51 198
51 199
51 207
51 208
51 210
52 201
52 204
53 198
53 202
53 205
53 207
53 208
55 202
55 205
55 208
56 196
57 202
57 205
58 206
59 195
60 198
61 207
61 210
61 211
62 210
62 211
62 213
62 214
62 215
62 216
62 217
62 233
62 234
62 236
63 210
63 211
63 212
63 213
63 214
63 216
63 217
63 230
63 236
63 239
64 211
64 212
64 230
64 239
64 244
65 213
65 214
65 215
65 218
65 219
65 220
65 223
65 224
65 225
65 226
65 227
65 229
65 232
65 237
65 240
66 213
66 215
67 213
67 214
67 218
67 219
67 220
67 224
67 229
67 232
67 235
67 237
67 240
67 242
68 213
68 219
69 213
69 214
69 223
69 225
70 213
70 219
71 213
72 213
73 211
73 212
73 241
74 219
75 213
76 211
76 244
77 213
77 215
78 220
78 224
79 213
79 215
79 221
80 214
80 215
80 221
81 214
81 215
81 233
82 214
82 235
83 213
83 219
83 231
83 238
84 230
85 213
85 214
85 221
87 213
87 214
87 215
88 213
88 219
89 211
90 213
90 215
92 215
92 234
93 213
94 223
94 225
95 214
95 233
96 219
97 240
98 212
99 223
99 225
100 214
101 220
101 229
102 213
102 219
103 211
103 212
103 244
103 246
103 250
104 244
104 245
104 246
104 248
104 250
104 255
104 256
104 260
104 261
104 262
105 244
105 245
105 247
105 249
105 251
105 253
105 256
105 257
105 258
105 259
105 263
106 244
106 245
106 247
106 253
106 257
106 259
106 263
107 244
108 244
108 246
108 255
109 250
109 260
110 244
110 256
110 262
111 244
111 252
111 254
112 250
113 244
113 256
114 244
114 245
114 252
115 244
116 246
116 261
117 259
117 263
118 252
118 254
119 246
119 255
121 246
122 256
123 250
124 262
125 245
126 250
126 260
127 245
127 252
127 254
128 250
129 250
130 262
131 244
131 245
131 263
131 264
131 266
131 267
131 269
131 270
131 271
131 274
131 275
131 276
131 281
131 284
132 263
132 264
132 265
132 266
132 267
132 270
132 272
132 273
132 274
132 276
132 277
132 278
132 279
132 280
133 263
133 265
133 277
134 264
134 266
134 268
134 269
134 272
134 278
134 281
134 282
134 284
135 263
135 264
135 273
135 279
136 263
136 264
137 271
137 277
137 280
137 283
138 263
138 264
139 266
139 281
140 271
140 280
140 283
141 264
141 268
141 275
141 284
142 263
142 264
143 271
144 270
144 276